100
1000
200
200
199
198
198
198
198
196
195
195
194
194
194
193
193
192
192
190
189
189
188
188
187
187
185
184
183
183
183
182
182
181
181
181
180
180
180
179
179
179
179
178
178
177
177
176
176
176
176
176
175
175
175
175
174
174
173
173
172
172
171
171
170
169
166
165
164
164
163
163
162
162
162
162
162
161
161
160
159
158
157
156
156
155
155
155
154
154
153
153
153
153
153
152
152
152
151
151
150
150
